####################################################################### 
# 
# This file contains crystal structure data downloaded from the 
# Cambridge Structural Database (CSD) hosted by the Cambridge 
# Crystallographic Data Centre (CCDC).
# 
# Full information about CCDC data access policies and citation 
# guidelines are available at http://www.ccdc.cam.ac.uk/access/V1 
# 
# Audit and citation data items may have been added by the CCDC. 
# Please retain this information to preserve the provenance of 
# this file and to allow appropriate attribution of the data. 
# 
#######################################################################

data_guanine
_audit_block_doi                 10.5517/cc7d8b6
_database_code_depnum_ccdc_archive 'CCDC 220327'
loop_
_citation_id
_citation_doi
_citation_year
1 10.1016/j.jinorgbio.2004.01.013 2004
_audit_update_record             
;
2003-09-23 deposited with the CCDC.	2023-12-05 downloaded from the CCDC.
;

_audit_creation_method           SHELXL-97
_chemical_name_systematic        
;
?
;
_chemical_name_common            ?
_chemical_formula_moiety         ?
_chemical_formula_sum            'C11 H21 Au2 Br0.75 K0.75 N5 O3 P2'
_chemical_formula_weight         816.46

loop_
_atom_type_symbol
_atom_type_description
_atom_type_scat_dispersion_real
_atom_type_scat_dispersion_imag
_atom_type_scat_source
C C 0.0033 0.0016 'International Tables Vol C Tables 4.2.6.8 and 6.1.1.4'
H H 0.0000 0.0000 'International Tables Vol C Tables 4.2.6.8 and 6.1.1.4'
N N 0.0061 0.0033 'International Tables Vol C Tables 4.2.6.8 and 6.1.1.4'
O O 0.0106 0.0060 'International Tables Vol C Tables 4.2.6.8 and 6.1.1.4'
P P 0.1023 0.0942 'International Tables Vol C Tables 4.2.6.8 and 6.1.1.4'
K K 0.2009 0.2494 'International Tables Vol C Tables 4.2.6.8 and 6.1.1.4'
Br Br -0.2901 2.4595 'International Tables Vol C Tables 4.2.6.8 and 6.1.1.4'
Au Au -2.0133 8.8022 'International Tables Vol C Tables 4.2.6.8 and 6.1.1.4'

_symmetry_cell_setting           tetragonal
_symmetry_space_group_name_H-M   P-42c

loop_
_symmetry_equiv_pos_as_xyz
'x, y, z'
'-x, -y, z'
'y, -x, -z'
'-y, x, -z'
'-x, y, -z+1/2'
'x, -y, -z+1/2'
'-y, -x, z+1/2'
'y, x, z+1/2'

_cell_length_a                   14.563(2)
_cell_length_b                   14.563(2)
_cell_length_c                   19.628(4)
_cell_angle_alpha                90.00
_cell_angle_beta                 90.00
_cell_angle_gamma                90.00
_cell_volume                     4162.7(12)
_cell_formula_units_Z            8
_cell_measurement_temperature    293(2)
_cell_measurement_reflns_used    ?
_cell_measurement_theta_min      ?
_cell_measurement_theta_max      ?

_exptl_crystal_description       ?
_exptl_crystal_colour            ?
_exptl_crystal_size_max          ?
_exptl_crystal_size_mid          ?
_exptl_crystal_size_min          ?
_exptl_crystal_density_meas      ?
_exptl_crystal_density_diffrn    2.606
_exptl_crystal_density_method    'not measured'
_exptl_crystal_F_000             2996
_exptl_absorpt_coefficient_mu    15.844
_exptl_absorpt_correction_type   ?
_exptl_absorpt_correction_T_min  ?
_exptl_absorpt_correction_T_max  ?

_exptl_special_details           
;
?
;

_diffrn_ambient_temperature      293(2)
_diffrn_radiation_wavelength     0.71073
_diffrn_radiation_type           MoK\a
_diffrn_radiation_source         'fine-focus sealed tube'
_diffrn_radiation_monochromator  graphite
_diffrn_measurement_device_type  ?
_diffrn_measurement_method       ?
_diffrn_detector_area_resol_mean ?
_diffrn_standards_number         ?
_diffrn_standards_interval_count ?
_diffrn_standards_interval_time  ?
_diffrn_standards_decay_%        ?
_diffrn_reflns_number            5240
_diffrn_reflns_av_R_equivalents  0.1442
_diffrn_reflns_av_sigmaI/netI    0.1226
_diffrn_reflns_limit_h_min       -1
_diffrn_reflns_limit_h_max       17
_diffrn_reflns_limit_k_min       -1
_diffrn_reflns_limit_k_max       17
_diffrn_reflns_limit_l_min       -1
_diffrn_reflns_limit_l_max       23
_diffrn_reflns_theta_min         1.74
_diffrn_reflns_theta_max         24.99
_reflns_number_total             2418
_reflns_number_gt                1966
_reflns_threshold_expression     >2sigma(I)

_computing_data_collection       ?
_computing_cell_refinement       ?
_computing_data_reduction        ?
_computing_structure_solution    'SHELXS-97 (Sheldrick, 1990)'
_computing_structure_refinement  'SHELXL-97 (Sheldrick, 1997)'
_computing_molecular_graphics    ?
_computing_publication_material  ?

_refine_special_details          
;
Refinement of F^2^ against ALL reflections.  The weighted R-factor wR and
goodness of fit S are based on F^2^, conventional R-factors R are based
on F, with F set to zero for negative F^2^. The threshold expression of
F^2^ > 2sigma(F^2^) is used only for calculating R-factors(gt) etc. and is
not relevant to the choice of reflections for refinement.  R-factors based
on F^2^ are statistically about twice as large as those based on F, and R-
factors based on ALL data will be even larger.
;

_refine_ls_structure_factor_coef Fsqd
_refine_ls_matrix_type           full
_refine_ls_weighting_scheme      
'calc w=1/[\s^2^(Fo^2^)+(0.0819P)^2^+1.6162P] where P=(Fo^2^+2Fc^2^)/3'
_atom_sites_solution_primary     direct
_atom_sites_solution_secondary   difmap
_atom_sites_solution_hydrogens   geom
_refine_ls_hydrogen_treatment    mixed
_refine_ls_extinction_method     none
_refine_ls_extinction_coef       ?
_refine_ls_abs_structure_details 'Flack H D (1983), Acta Cryst. A39, 876-881'
_refine_ls_abs_structure_Flack   0.10(3)
_refine_ls_number_reflns         2418
_refine_ls_number_parameters     136
_refine_ls_number_restraints     7
_refine_ls_R_factor_all          0.0801
_refine_ls_R_factor_gt           0.0620
_refine_ls_wR_factor_ref         0.1623
_refine_ls_wR_factor_gt          0.1530
_refine_ls_goodness_of_fit_ref   1.061
_refine_ls_restrained_S_all      1.068
_refine_ls_shift/su_max          0.000
_refine_ls_shift/su_mean         0.000

loop_
_atom_site_label
_atom_site_type_symbol
_atom_site_fract_x
_atom_site_fract_y
_atom_site_fract_z
_atom_site_U_iso_or_equiv
_atom_site_adp_type
_atom_site_occupancy
_atom_site_calc_flag
_atom_site_refinement_flags
_atom_site_disorder_assembly
_atom_site_disorder_group
Au1A Au 0.03920(8) 0.65747(7) 0.51940(11) 0.0315(5) Uani 0.853(7) d P A 1
Au2A Au 0.04367(9) 0.68096(8) 0.36592(11) 0.0387(5) Uani 0.853(7) d P A 1
Au1B Au 0.0442(7) 0.6598(6) 0.5524(7) 0.047(3) Uiso 0.147(7) d P A 2
Au2B Au 0.0315(8) 0.6719(7) 0.3971(7) 0.051(3) Uiso 0.147(7) d P A 2
Br1 Br 0.0000 0.6591(3) 0.7500 0.0900(19) Uani 1 d S . .
Br2 Br 0.0000 1.0000 0.5000 0.106(3) Uani 1 d S . .
P1 P 0.1602(5) 0.7409(6) 0.5567(5) 0.060(2) Uani 1 d D . .
P2 P 0.1571(6) 0.7800(6) 0.3554(4) 0.062(2) Uani 1 d D . .
K1 K 0.5000 0.6309(7) 0.2500 0.065(2) Uani 1 d S . .
K2 K -0.5000 0.5000 0.5000 0.051(3) Uani 1 d S . .
N1 N -0.2169(14) 0.5106(15) 0.5302(10) 0.044(5) Uiso 1 d D . .
N2 N -0.114(2) 0.559(2) 0.6069(11) 0.074(8) Uiso 1 d D . .
C2 C -0.1333(15) 0.5488(17) 0.5460(10) 0.034(5) Uiso 1 d D . .
N3 N -0.0812(14) 0.5809(14) 0.4967(9) 0.037(4) Uiso 1 d . . .
C4 C -0.1065(16) 0.5666(18) 0.4300(12) 0.043(6) Uiso 1 d D . .
C5 C -0.1883(17) 0.5209(18) 0.4113(13) 0.046(6) Uiso 1 d D . .
O6 O -0.3237(14) 0.4555(15) 0.4510(9) 0.061(5) Uiso 1 d . . .
C6 C -0.2472(16) 0.4948(17) 0.4658(10) 0.039(5) Uiso 1 d D . .
N7 N -0.2021(16) 0.5248(16) 0.3444(11) 0.050(6) Uiso 1 d . . .
C8 C -0.128(2) 0.571(2) 0.3206(16) 0.066(9) Uiso 1 d . . .
H8 H -0.1168 0.5830 0.2748 0.079 Uiso 1 calc R . .
N9 N -0.0729(15) 0.5964(15) 0.3700(10) 0.044(5) Uiso 1 d . . .
C11 C 0.241(2) 0.685(3) 0.6101(15) 0.079(10) Uiso 1 d D . .
H11A H 0.2881 0.7271 0.6230 0.118 Uiso 1 calc R . .
H11B H 0.2675 0.6339 0.5861 0.118 Uiso 1 calc R . .
H11C H 0.2101 0.6626 0.6502 0.118 Uiso 1 calc R . .
C12 C 0.128(3) 0.833(3) 0.6179(19) 0.083(11) Uiso 1 d . . .
H12A H 0.1067 0.8052 0.6595 0.124 Uiso 1 calc R . .
H12B H 0.0800 0.8696 0.5986 0.124 Uiso 1 calc R . .
H12C H 0.1806 0.8703 0.6271 0.124 Uiso 1 calc R . .
C21 C 0.2507(19) 0.742(2) 0.3035(14) 0.068(8) Uiso 1 d D . .
H21A H 0.2693 0.7912 0.2738 0.101 Uiso 1 calc R . .
H21B H 0.2318 0.6904 0.2768 0.101 Uiso 1 calc R . .
H21C H 0.3013 0.7250 0.3321 0.101 Uiso 1 calc R . .
C22 C 0.120(3) 0.877(2) 0.3016(19) 0.108(14) Uiso 1 d D . .
H22A H 0.1717 0.8994 0.2761 0.162 Uiso 1 calc R . .
H22B H 0.0962 0.9249 0.3299 0.162 Uiso 1 calc R . .
H22C H 0.0733 0.8563 0.2707 0.162 Uiso 1 calc R . .
C121 C 0.232(3) 0.776(4) 0.484(2) 0.141(18) Uiso 1 d D . .
H12D H 0.2847 0.8062 0.5040 0.169 Uiso 1 calc R . .
H12E H 0.2541 0.7196 0.4642 0.169 Uiso 1 calc R . .
C122 C 0.205(3) 0.834(3) 0.426(2) 0.107(15) Uiso 1 d . . .
H12F H 0.2584 0.8677 0.4113 0.128 Uiso 1 calc R . .
H12G H 0.1605 0.8789 0.4427 0.128 Uiso 1 calc R . .
O1 O 0.5000 0.8316(19) 0.2500 0.046(6) Uiso 1 d S . .
O2 O 0.5388(15) 0.6324(14) 0.1187(9) 0.063(5) Uiso 1 d . . .
O3 O 0.354(2) 0.5000 0.2500 0.062(7) Uiso 1 d S . .

loop_
_atom_site_aniso_label
_atom_site_aniso_U_11
_atom_site_aniso_U_22
_atom_site_aniso_U_33
_atom_site_aniso_U_23
_atom_site_aniso_U_13
_atom_site_aniso_U_12
Au1A 0.0238(5) 0.0272(6) 0.0436(11) 0.0020(5) 0.0010(6) -0.0057(4)
Au2A 0.0345(6) 0.0372(6) 0.0443(10) -0.0025(6) 0.0070(6) -0.0086(5)
Br1 0.079(3) 0.049(2) 0.141(5) 0.000 -0.047(4) 0.000
Br2 0.050(2) 0.050(2) 0.219(11) 0.000 0.000 0.000
P1 0.048(4) 0.048(4) 0.083(5) -0.007(4) -0.003(4) -0.024(3)
P2 0.046(4) 0.070(5) 0.070(5) -0.004(5) 0.006(4) -0.019(4)
K1 0.071(6) 0.062(6) 0.061(5) 0.000 0.011(5) 0.000
K2 0.035(3) 0.035(3) 0.083(8) 0.000 0.000 0.000

_geom_special_details            
;
All esds (except the esd in the dihedral angle between two l.s. planes)
are estimated using the full covariance matrix.  The cell esds are taken
into account individually in the estimation of esds in distances, angles
and torsion angles; correlations between esds in cell parameters are only
used when they are defined by crystal symmetry.  An approximate (isotropic)
treatment of cell esds is used for estimating esds involving l.s. planes.
;

loop_
_geom_bond_atom_site_label_1
_geom_bond_atom_site_label_2
_geom_bond_distance
_geom_bond_site_symmetry_2
_geom_bond_publ_flag
Au1A N3 2.12(2) . ?
Au1A P1 2.263(7) . ?
Au1A Au2A 3.033(2) . ?
Au2A N9 2.10(2) . ?
Au2A P2 2.203(8) . ?
Au1B P1 2.063(12) . ?
Au1B N3 2.42(2) . ?
Au1B Au2B 3.059(12) . ?
Au2B N9 1.95(2) . ?
Au2B P2 2.548(15) . ?
Au2B C4 2.61(3) . ?
P1 C11 1.77(2) . ?
P1 C121 1.84(3) . ?
P1 C12 1.86(4) . ?
P2 C122 1.74(4) . ?
P2 C21 1.79(2) . ?
P2 C22 1.84(3) . ?
K1 O2 2.639(18) . ?
K1 O2 2.639(18) 5_655 ?
K1 O3 2.86(2) . ?
K1 O3 2.86(2) 2_665 ?
K1 O1 2.92(3) . ?
K1 K1 3.81(2) 2_665 ?
K2 O6 2.82(2) 3_456 ?
K2 O6 2.82(2) 4_566 ?
K2 O6 2.82(2) . ?
K2 O6 2.82(2) 2_465 ?
K2 O2 3.076(19) 6_465 ?
K2 O2 3.08(2) 8_455 ?
K2 O2 3.08(2) 7_565 ?
K2 O2 3.076(19) 5 ?
N1 C6 1.36(2) . ?
N1 C2 1.37(3) . ?
N2 C2 1.24(2) . ?
C2 N3 1.32(3) . ?
N3 C4 1.38(3) . ?
C4 N9 1.35(3) . ?
C4 C5 1.41(2) . ?
C5 N7 1.33(3) . ?
C5 C6 1.42(3) . ?
O6 C6 1.29(3) . ?
N7 C8 1.36(4) . ?
C8 N9 1.31(4) . ?
C121 C122 1.47(6) . ?
O2 K2 3.08(2) 5 ?
O3 K1 2.86(2) 2_665 ?

loop_
_geom_angle_atom_site_label_1
_geom_angle_atom_site_label_2
_geom_angle_atom_site_label_3
_geom_angle
_geom_angle_site_symmetry_1
_geom_angle_site_symmetry_3
_geom_angle_publ_flag
N3 Au1A P1 172.9(6) . . ?
N3 Au1A Au2A 82.4(5) . . ?
P1 Au1A Au2A 104.1(2) . . ?
N9 Au2A P2 173.9(6) . . ?
N9 Au2A Au1A 83.0(6) . . ?
P2 Au2A Au1A 100.6(2) . . ?
P1 Au1B N3 155.3(8) . . ?
P1 Au1B Au2B 93.3(5) . . ?
N3 Au1B Au2B 62.0(6) . . ?
N9 Au2B P2 145.1(9) . . ?
N9 Au2B C4 30.2(8) . . ?
P2 Au2B C4 174.5(7) . . ?
N9 Au2B Au1B 106.6(9) . . ?
P2 Au2B Au1B 108.2(4) . . ?
C4 Au2B Au1B 76.5(7) . . ?
C11 P1 C121 102(2) . . ?
C11 P1 C12 96.7(16) . . ?
C121 P1 C12 116(2) . . ?
C11 P1 Au1B 107.5(14) . . ?
C121 P1 Au1B 126.3(18) . . ?
C12 P1 Au1B 103.4(14) . . ?
C11 P1 Au1A 117.3(14) . . ?
C121 P1 Au1A 109.9(18) . . ?
C12 P1 Au1A 113.5(13) . . ?
Au1B P1 Au1A 16.5(4) . . ?
C122 P2 C21 107(2) . . ?
C122 P2 C22 103(2) . . ?
C21 P2 C22 97.6(18) . . ?
C122 P2 Au2A 121.2(16) . . ?
C21 P2 Au2A 115.1(11) . . ?
C22 P2 Au2A 109.6(15) . . ?
C122 P2 Au2B 107.9(16) . . ?
C21 P2 Au2B 122.7(12) . . ?
C22 P2 Au2B 116.6(16) . . ?
Au2A P2 Au2B 13.4(2) . . ?
O2 K1 O2 179.0(10) . 5_655 ?
O2 K1 O3 99.5(5) . . ?
O2 K1 O3 81.1(5) 5_655 . ?
O2 K1 O3 81.1(5) . 2_665 ?
O2 K1 O3 99.5(5) 5_655 2_665 ?
O3 K1 O3 96.4(8) . 2_665 ?
O2 K1 O1 89.5(5) . . ?
O2 K1 O1 89.5(5) 5_655 . ?
O3 K1 O1 131.8(4) . . ?
O3 K1 O1 131.8(4) 2_665 . ?
O2 K1 K1 90.5(5) . 2_665 ?
O2 K1 K1 90.5(5) 5_655 2_665 ?
O3 K1 K1 48.2(4) . 2_665 ?
O3 K1 K1 48.2(4) 2_665 2_665 ?
O1 K1 K1 180.000(2) . 2_665 ?
O6 K2 O6 140.1(7) 3_456 4_566 ?
O6 K2 O6 96.7(2) 3_456 . ?
O6 K2 O6 96.7(2) 4_566 . ?
O6 K2 O6 96.7(2) 3_456 2_465 ?
O6 K2 O6 96.7(2) 4_566 2_465 ?
O6 K2 O6 140.1(7) . 2_465 ?
O6 K2 O2 74.3(5) 3_456 6_465 ?
O6 K2 O2 142.0(6) 4_566 6_465 ?
O6 K2 O2 55.2(6) . 6_465 ?
O6 K2 O2 93.0(6) 2_465 6_465 ?
O6 K2 O2 93.0(6) 3_456 8_455 ?
O6 K2 O2 55.2(6) 4_566 8_455 ?
O6 K2 O2 74.3(5) . 8_455 ?
O6 K2 O2 142.0(6) 2_465 8_455 ?
O2 K2 O2 125.0(4) 6_465 8_455 ?
O6 K2 O2 55.2(6) 3_456 7_565 ?
O6 K2 O2 93.0(6) 4_566 7_565 ?
O6 K2 O2 142.0(6) . 7_565 ?
O6 K2 O2 74.3(5) 2_465 7_565 ?
O2 K2 O2 125.0(5) 6_465 7_565 ?
O2 K2 O2 81.6(7) 8_455 7_565 ?
O6 K2 O2 142.0(6) 3_456 5 ?
O6 K2 O2 74.3(5) 4_566 5 ?
O6 K2 O2 93.0(6) . 5 ?
O6 K2 O2 55.2(6) 2_465 5 ?
O2 K2 O2 81.6(7) 6_465 5 ?
O2 K2 O2 125.0(5) 8_455 5 ?
O2 K2 O2 125.0(4) 7_565 5 ?
C6 N1 C2 125(2) . . ?
N2 C2 N3 122(2) . . ?
N2 C2 N1 118(2) . . ?
N3 C2 N1 119.2(18) . . ?
C2 N3 C4 119(2) . . ?
C2 N3 Au1A 120.5(14) . . ?
C4 N3 Au1A 120.0(15) . . ?
C2 N3 Au1B 105.8(13) . . ?
C4 N3 Au1B 134.8(16) . . ?
Au1A N3 Au1B 14.8(3) . . ?
N9 C4 N3 133(2) . . ?
N9 C4 C5 103(2) . . ?
N3 C4 C5 123(2) . . ?
N9 C4 Au2B 46.8(12) . . ?
N3 C4 Au2B 86.6(14) . . ?
C5 C4 Au2B 149.5(18) . . ?
N7 C5 C4 111(2) . . ?
N7 C5 C6 131(2) . . ?
C4 C5 C6 116(2) . . ?
C6 O6 K2 127.6(16) . . ?
O6 C6 N1 124(2) . . ?
O6 C6 C5 118.2(19) . . ?
N1 C6 C5 117(2) . . ?
C5 N7 C8 104(2) . . ?
N9 C8 N7 112(3) . . ?
C8 N9 C4 110(2) . . ?
C8 N9 Au2B 147(2) . . ?
C4 N9 Au2B 103.1(16) . . ?
C8 N9 Au2A 129(2) . . ?
C4 N9 Au2A 121.0(16) . . ?
Au2B N9 Au2A 18.0(4) . . ?
C122 C121 P1 127(4) . . ?
C121 C122 P2 118(4) . . ?
K1 O2 K2 134.0(8) . 5 ?
K1 O3 K1 83.6(8) . 2_665 ?

_diffrn_measured_fraction_theta_max 0.996
_diffrn_reflns_theta_full        24.99
_diffrn_measured_fraction_theta_full 0.996
_refine_diff_density_max         1.636
_refine_diff_density_min         -2.258
_refine_diff_density_rms         0.299

#===END

