####################################################################### 
# 
# This file contains crystal structure data downloaded from the 
# Cambridge Structural Database (CSD) hosted by the Cambridge 
# Crystallographic Data Centre (CCDC).
# 
# Full information about CCDC data access policies and citation 
# guidelines are available at http://www.ccdc.cam.ac.uk/access/V1 
# 
# Audit and citation data items may have been added by the CCDC. 
# Please retain this information to preserve the provenance of 
# this file and to allow appropriate attribution of the data. 
# 
#######################################################################

data_(I)
_audit_block_doi                 10.5517/cc4lgnt
_database_code_depnum_ccdc_archive 'CCDC 136916'
loop_
_citation_id
_citation_doi
_citation_year
1 10.3891/acta.chem.scand.53-0057 1999
_audit_update_record             
;
1999-11-10 deposited with the CCDC.	2023-12-03 downloaded from the CCDC.
;

# ATOMIC COORDINATES AND DISPLACEMENT PARAMETERS

loop_
_atom_type_symbol
_atom_type_number_in_cell
_atom_type_description
_atom_type_scat_dispersion_real
_atom_type_scat_dispersion_imag
_atom_type_scat_source
#
# symbol number description   f'     f''        source
#
'O ' 8 'Oxygen      ' 0.0106 0.0060 'Int. Tab. C, 4.2.6.8, 6.1.1.4'
'N ' 8 'Nitrogen    ' 0.0061 0.0033 'Int. Tab. C, 4.2.6.8, 6.1.1.4'
'C ' 20 'Carbon      ' 0.0033 0.0016 'Int. Tab. C, 4.2.6.8, 6.1.1.4'
'H ' 24 'Hydrogen    ' 0.0000 0.0000 'Int. Tab. C, 4.2.6.8, 6.1.1.4'

loop_
_atom_site_label
_atom_site_fract_x
_atom_site_fract_y
_atom_site_fract_z
_atom_site_U_iso_or_equiv
_atom_site_adp_type
_atom_site_type_symbol
_atom_site_calc_flag
_atom_site_occupancy
_atom_site_disorder_group
#
#                     Table of coordinates
#                     --------------------
#
#label    x/a         y/b         z/c        Ueq        tmf typ calc sof dis

O1 0.4878(2) -0.0076(3) 0.2430(4) 0.0564(9) Uani O . . .
O2 0.7811(2) -0.3512(3) 0.5833(4) 0.0624(10) Uani O . . .
N1 0.6387(3) 0.1603(3) 0.4036(4) 0.0493(11) Uani N . . .
N3 0.6361(3) -0.1750(3) 0.4166(4) 0.0461(10) Uani N . . .
C2 0.5824(3) -0.0071(4) 0.3481(5) 0.0450(11) Uani C . . .
C4 0.7424(3) -0.1895(4) 0.5342(6) 0.0476(13) Uani C . . .
C5 0.7971(3) -0.0042(4) 0.5895(5) 0.0491(12) Uani C . . .
C6 0.7436(3) 0.1610(4) 0.5225(6) 0.0493(13) Uani C . . .
C7 0.9111(4) -0.0073(6) 0.7179(8) 0.0714(18) Uani C . . .
H1 0.6014(34) 0.2564(70) 0.3613(66) 0.0002(1) Uiso H . . .
H3 0.5968(34) -0.2794(67) 0.3746(64) 0.0003(1) Uiso H . . .
H6 0.7760(30) 0.2899(67) 0.5522(57) 0.0002(1) Uiso H . . .
H71 0.9361(39) 0.1171(77) 0.7552(77) 0.0006(1) Uiso H . . .
H72 0.9215(37) -0.0920(71) 0.8437(75) 0.0008(2) Uiso H . . .
H73 0.9609(43) -0.0686(76) 0.6378(74) 0.0004(1) Uiso H . . .
loop_
_atom_site_aniso_label
_atom_site_aniso_U_11
_atom_site_aniso_U_22
_atom_site_aniso_U_33
_atom_site_aniso_U_23
_atom_site_aniso_U_13
_atom_site_aniso_U_12

#label   U11         U22         U33         U23         U13         U12

O1 0.0766(22) 0.1231(41) 0.3161(66) 0.0016(93) -0.0144(63) -0.0019(47)
O2 0.085(2) 0.146(4) 0.373(8) 0.045(10) 0.056(7) 0.048(5)
N1 0.078(3) 0.093(4) 0.283(8) 0.017(10) 0.048(8) 0.001(6)
N3 0.0673(25) 0.1049(48) 0.2641(82) 0.0035(91) 0.0432(75) -0.0040(54)
C2 0.076(3) 0.107(5) 0.221(8) 0.006(12) 0.054(8) 0.006(6)
C4 0.074(3) 0.132(6) 0.246(10) 0.006(11) 0.076(9) 0.018(6)
C5 0.071(3) 0.153(6) 0.250(9) -0.002(13) 0.060(8) -0.024(7)
C6 0.072(3) 0.128(5) 0.273(10) 0.009(13) 0.056(9) -0.033(7)
C7 0.071(3) 0.212(8) 0.451(16) 0.013(21) 0.014(12) -0.006(9)

# MOLECULAR GEOMETRY

loop_
_geom_bond_atom_site_label_1
_geom_bond_atom_site_label_2
_geom_bond_distance
_geom_bond_site_symmetry_1
_geom_bond_site_symmetry_2
_geom_bond_publ_flag
O1 C2 1.244(4) . . no
O2 C4 1.225(4) . . no
N1 C2 1.358(4) . . no
N1 C6 1.384(5) . . no
N1 H1 0.82(4) . . no
N3 C2 1.361(4) . . no
N3 C4 1.401(5) . . no
N3 H3 0.88(4) . . no
C4 C5 1.453(4) . . no
C5 C6 1.343(4) . . no
C5 C7 1.502(6) . . no
C6 H6 0.98(4) . . no
C7 H71 0.92(5) . . no
C7 H72 1.01(5) . . no
C7 H73 1.03(5) . . no
loop_
_geom_angle_atom_site_label_1
_geom_angle_atom_site_label_2
_geom_angle_atom_site_label_3
_geom_angle
_geom_angle_site_symmetry_1
_geom_angle_site_symmetry_2
_geom_angle_site_symmetry_3
_geom_angle_publ_flag
C2 N1 C6 122.5(3) . . . no
C2 N1 H1 111(3) . . . no
C6 N1 H1 127(3) . . . no
C2 N3 C4 126.3(3) . . . no
C2 N3 H3 112(3) . . . no
C4 N3 H3 122(3) . . . no
O1 C2 N1 122.4(3) . . . no
O1 C2 N3 122.1(3) . . . no
N1 C2 N3 115.5(2) . . . no
O2 C4 N3 119.2(3) . . . no
O2 C4 C5 125.7(3) . . . no
N3 C4 C5 115.1(3) . . . no
C4 C5 C6 118.4(3) . . . no
C4 C5 C7 118.3(3) . . . no
C6 C5 C7 123.3(3) . . . no
N1 C6 C5 122.3(3) . . . no
N1 C6 H6 115(2) . . . no
C5 C6 H6 123(3) . . . no
C5 C7 H71 112(3) . . . no
C5 C7 H72 113(3) . . . no
C5 C7 H73 110(3) . . . no
H71 C7 H72 110(4) . . . no
H71 C7 H73 107(4) . . . no
H72 C7 H73 104(4) . . . no
loop_
_geom_torsion_atom_site_label_1
_geom_torsion_atom_site_label_2
_geom_torsion_atom_site_label_3
_geom_torsion_atom_site_label_4
_geom_torsion
_geom_torsion_site_symmetry_1
_geom_torsion_site_symmetry_2
_geom_torsion_site_symmetry_3
_geom_torsion_site_symmetry_4
_geom_torsion_publ_flag
C6 N1 C2 O1 179.2(3) . . . . no
C6 N1 C2 N3 -0.2(5) . . . . no
H1 N1 C2 O1 2(3) . . . . no
H1 N1 C2 N3 -177(3) . . . . no
C2 N1 C6 C5 0.6(5) . . . . no
C2 N1 C6 H6 180(3) . . . . no
H1 N1 C6 C5 178(4) . . . . no
H1 N1 C6 H6 -2(5) . . . . no
C4 N3 C2 O1 179.6(3) . . . . no
C4 N3 C2 N1 -0.9(5) . . . . no
H3 N3 C2 O1 2(3) . . . . no
H3 N3 C2 N1 -178(3) . . . . no
C2 N3 C4 O2 -179.2(3) . . . . no
C2 N3 C4 C5 1.6(5) . . . . no
H3 N3 C4 O2 0(3) . . . . no
H3 N3 C4 C5 179(3) . . . . no
O2 C4 C5 C6 179.7(4) . . . . no
O2 C4 C5 C7 0.0(6) . . . . no
N3 C4 C5 C6 -1.1(5) . . . . no
N3 C4 C5 C7 179.2(3) . . . . no
C4 C5 C6 N1 0.1(5) . . . . no
C4 C5 C6 H6 -178(3) . . . . no
C7 C5 C6 N1 179.7(4) . . . . no
C7 C5 C6 H6 1(3) . . . . no
C4 C5 C7 H71 -173(3) . . . . no
C4 C5 C7 H72 -49(3) . . . . no
C4 C5 C7 H73 66(3) . . . . no
C6 C5 C7 H71 6(4) . . . . no
C6 C5 C7 H72 130(3) . . . . no
C6 C5 C7 H73 -112(3) . . . . no

# CHEMICAL DATA

_chemical_name_systematic        ?
_chemical_formula_analytical     ?
_chemical_formula_moiety         ?
_chemical_formula_structural     ?
_chemical_formula_sum            'C5 H6 N2 O2 '
_chemical_formula_weight         126.11
_chemical_melting_point          ?
_chemical_compound_source        ?

# CRYSTAL DATA

_cell_length_a                   12.889(7)
_cell_length_b                   6.852(2)
_cell_length_c                   6.784(3)
_cell_angle_alpha                90.00(0)
_cell_angle_beta                 104.92(5)
_cell_angle_gamma                90.00(0)
_cell_volume                     578.9(5)
_cell_formula_units_Z            4.00
_cell_measurement_temperature    ?
_cell_measurement_radiation      ?
_cell_measurement_wavelength     ?
_cell_measurement_reflns_used    ?
_cell_measurement_theta_min      ?
_cell_measurement_theta_max      ?

_symmetry_cell_setting           ?
_symmetry_space_group_name_H-M   ' P21/C         '
_symmetry_Int_Tables_number      ?

_exptl_crystal_description       
; ......
;
_exptl_crystal_colour            ?
_exptl_crystal_size_max          ?
_exptl_crystal_size_mid          ?
_exptl_crystal_size_min          ?
_exptl_crystal_density_diffrn    1.4469
_exptl_crystal_density_meas      ?
_exptl_crystal_density_method    ?
_exptl_crystal_F_000             264.0

_exptl_absorpt_coefficient_mu    0.1143
_exptl_absorpt_correction_type   ?
_exptl_absorpt_process_details   ?
_exptl_absorpt_correction_T_min  ?
_exptl_absorpt_correction_T_max  ?

# EXPERIMENTAL DATA

_diffrn_special_details          
; .......
;
_diffrn_ambient_temperature      ?
_diffrn_radiation_wavelength     0.71069
_diffrn_radiation_type           ?
_diffrn_radiation_source         ?
_diffrn_radiation_monochromator  ?
_diffrn_radiation_detector       ?
_diffrn_measurement_device_type  ?
_diffrn_measurement_method       ?
_diffrn_detector_area_resol_mean ?

_diffrn_standards_number         ?
_diffrn_standards_interval_count ?
_diffrn_standards_interval_time  ?
_diffrn_standards_decay_%        ?

loop_
_diffrn_standard_refln_index_h
_diffrn_standard_refln_index_k
_diffrn_standard_refln_index_l
? ? ?

_reflns_number_total             ?
_reflns_number_gt                ?
_reflns_threshold_expression     ?
_diffrn_reflns_av_R_equivalents  ?
_diffrn_reflns_av_sigmaI/netI    ?
_diffrn_reflns_limit_h_min       ?
_diffrn_reflns_limit_h_max       ?
_diffrn_reflns_limit_k_min       ?
_diffrn_reflns_limit_k_max       ?
_diffrn_reflns_limit_l_min       ?
_diffrn_reflns_limit_l_max       ?
_diffrn_reflns_number            ?
_diffrn_reflns_theta_min         ?
_diffrn_reflns_theta_max         ?
_diffrn_reflns_theta_full        ?
_diffrn_measured_fraction_theta_max ?
_diffrn_measured_fraction_theta_full ?
_reflns_d_resolution_high        ?
_reflns_d_resolution_low         ?

_diffrn_reflns_reduction_process 
; ......
;

# REFINEMENT DATA

_refine_special_details          
; ......
;
_atom_sites_solution_primary     ?
_atom_sites_solution_secondary   ?
_atom_sites_solution_hydrogens   ?
_refine_ls_hydrogen_treatment    ?
_refine_ls_structure_factor_coef ?
_refine_ls_matrix_type           ?
_refine_ls_weighting_scheme      ?
_refine_ls_weighting_details     ?
_refine_ls_extinction_method     ?
_refine_ls_extinction_expression ?
_refine_ls_extinction_coef       ?

_refine_ls_number_reflns         ?
_refine_ls_number_parameters     ?
_refine_ls_number_restraints     ?
_refine_ls_number_constraints    ?
_refine_ls_R_factor_all          ?
_refine_ls_R_factor_gt           ?
_refine_ls_wR_factor_all         ?
_refine_ls_wR_factor_ref         ?
_refine_ls_goodness_of_fit_all   ?
_refine_ls_goodness_of_fit_ref   ?
_refine_ls_restrained_S_all      ?
_refine_ls_restrained_S_obs      ?
_refine_ls_shift/su_max          ?
_refine_ls_shift/su_mean         ?
_refine_diff_density_max         ?
_refine_diff_density_min         ?
_refine_diff_density_rms         ?

loop_
_symmetry_equiv_pos_as_xyz
x,y,z
-x,-y,-z
-x,y+1/2,-z+1/2
x,-y+1/2,z+1/2

loop_
_geom_hbond_atom_site_label_D
_geom_hbond_atom_site_label_H
_geom_hbond_atom_site_label_A
_geom_hbond_distance_DH
_geom_hbond_distance_HA
_geom_hbond_distance_DA
_geom_hbond_angle_DHA
_geom_hbond_site_symmetry_A
_geom_hbond_publ_flag
#D    H     A       D-H      H..A     D..A     D-H..A  A site sym  Flg
N1 H1 O1 0.82(5) 2.01(5) 2.827(3) 179(5) 3_655 ?
N3 H3 O1 0.88(4) 1.96(4) 2.833(3) 175(4) 3_645 ?
#  -x+1,+y+1/2,-z+1/2
#  -x+1,+y-1/2,-z+1/2



